c SAT Generator for power-law distributed variable frequencies
c -g u -v 20 -c 91 -k 3 -p 2.750000 -b 3.200000 -f /home/schmidt/Devel/ni-kop-sat/data/ensemble/ruf20-91/ruf20-91-921 -u 1 -U 1 -s 1590763079
p cnf 20 91
-3 -12 -19 0
-1 -12 15 0
-3 -9 16 0
-8 -16 -17 0
-10 -12 14 0
8 13 -17 0
2 -6 -17 0
4 9 10 0
8 -10 -19 0
8 14 17 0
9 11 17 0
-5 -6 7 0
-4 -5 -9 0
14 -15 20 0
-7 -9 -15 0
10 15 -19 0
1 12 18 0
12 15 17 0
2 12 -17 0
-2 -10 15 0
2 -5 17 0
-12 13 -17 0
-4 5 9 0
2 -13 -16 0
-12 -16 -17 0
-3 9 10 0
7 9 -19 0
-5 -6 18 0
-7 8 -16 0
-4 -17 -18 0
-7 8 9 0
5 -6 10 0
-10 -16 19 0
8 10 -11 0
7 8 10 0
-9 -11 13 0
1 -17 -18 0
6 7 16 0
-5 -18 19 0
-3 6 16 0
-11 -13 16 0
1 -2 12 0
-13 -17 -18 0
14 -15 19 0
-10 -15 -20 0
1 16 18 0
-14 -16 19 0
-8 -12 -16 0
1 10 20 0
1 -15 18 0
8 9 11 0
-9 13 19 0
6 -14 18 0
-1 6 -19 0
-4 14 -16 0
1 -14 16 0
4 -16 -19 0
-2 -7 18 0
-4 -9 -12 0
-7 -9 -18 0
1 16 20 0
-6 8 17 0
3 -12 16 0
2 -10 -12 0
-5 -11 20 0
2 9 15 0
5 13 16 0
2 9 20 0
-2 7 10 0
4 8 -11 0
2 -15 -19 0
5 -6 15 0
-14 17 19 0
-9 -16 17 0
-4 5 20 0
7 10 11 0
14 16 18 0
10 11 -14 0
6 9 10 0
-1 10 -14 0
1 -19 -20 0
8 10 16 0
3 6 -7 0
-1 -5 15 0
-11 -19 -20 0
-2 -7 -19 0
3 -14 -17 0
-15 -19 20 0
10 -18 -20 0
4 6 -13 0
16 18 -20 0
